; DUP1 CALLDATALOAD PUSH cw_1 SIGNEXTEND SWAP1 POP => CALLDATALOAD PUSH cw_1 SIGNEXTEND
(set-option :produce-proofs true)
; 
(set-info :status unknown)
(declare-fun storage_t ((_ BitVec 256) (_ BitVec 256) (_ BitVec 256) (_ BitVec 256) Int (_ BitVec 256)) (_ BitVec 256))
(declare-fun w_1 () (_ BitVec 256))
(declare-fun storage_s ((_ BitVec 256) (_ BitVec 256) (_ BitVec 256) (_ BitVec 256) Int (_ BitVec 256)) (_ BitVec 256))
(declare-fun exc_halt_t (Int) Bool)
(declare-fun exc_halt_s (Int) Bool)
(declare-fun stack_t ((_ BitVec 256) (_ BitVec 256) (_ BitVec 256) (_ BitVec 256) Int (_ BitVec 6)) (_ BitVec 256))
(declare-fun stack_s ((_ BitVec 256) (_ BitVec 256) (_ BitVec 256) (_ BitVec 256) Int (_ BitVec 6)) (_ BitVec 256))
(declare-fun sc_t (Int) (_ BitVec 6))
(declare-fun sc_s (Int) (_ BitVec 6))
(declare-fun used_gas_t ((_ BitVec 256) (_ BitVec 256) (_ BitVec 256) (_ BitVec 256) Int) Int)
(declare-fun used_gas_s ((_ BitVec 256) (_ BitVec 256) (_ BitVec 256) (_ BitVec 256) Int) Int)
(declare-fun f_SIGNEXTEND ((_ BitVec 256) (_ BitVec 256) (_ BitVec 256) (_ BitVec 256) (_ BitVec 256) (_ BitVec 256)) (_ BitVec 256))
(declare-fun f_CALLDATALOAD ((_ BitVec 256) (_ BitVec 256) (_ BitVec 256) (_ BitVec 256) (_ BitVec 256)) (_ BitVec 256))
(assert
 (exists ((x_0 (_ BitVec 256)) (x_SIGNEXTEND_0 (_ BitVec 256)) (x_CALLDATALOAD_0 (_ BitVec 256)) )(let (($x5887 (forall ((w (_ BitVec 256)) )(let ((?x1819 (storage_t x_0 w_1 x_SIGNEXTEND_0 x_CALLDATALOAD_0 3 w)))
 (let ((?x7403 (storage_s x_0 w_1 x_SIGNEXTEND_0 x_CALLDATALOAD_0 6 w)))
 (= ?x7403 ?x1819))))
 ))
 (let (($x10336 (exc_halt_t 3)))
 (let (($x772 (exc_halt_s 6)))
 (let (($x2647 (= $x772 $x10336)))
 (let (($x8029 (forall ((n (_ BitVec 6)) )(let ((?x3409 (stack_t x_0 w_1 x_SIGNEXTEND_0 x_CALLDATALOAD_0 3 n)))
 (let ((?x10279 (stack_s x_0 w_1 x_SIGNEXTEND_0 x_CALLDATALOAD_0 6 n)))
 (let (($x7314 (= ?x10279 ?x3409)))
 (let ((?x2012 (sc_t 3)))
 (let (($x418 (bvsle ?x2012 n)))
 (or $x418 $x7314)))))))
 ))
 (let ((?x2012 (sc_t 3)))
 (let ((?x926 (sc_s 6)))
 (let (($x7824 (= ?x926 ?x2012)))
 (let ((?x9619 (used_gas_t x_0 w_1 x_SIGNEXTEND_0 x_CALLDATALOAD_0 0)))
 (let ((?x914 (used_gas_s x_0 w_1 x_SIGNEXTEND_0 x_CALLDATALOAD_0 0)))
 (let (($x6641 (= ?x914 ?x9619)))
 (let (($x658 (forall ((w (_ BitVec 256)) )(let ((?x10036 (storage_t x_0 w_1 x_SIGNEXTEND_0 x_CALLDATALOAD_0 0 w)))
 (let ((?x9534 (storage_s x_0 w_1 x_SIGNEXTEND_0 x_CALLDATALOAD_0 0 w)))
 (= ?x9534 ?x10036))))
 ))
 (let (($x56 (exc_halt_t 0)))
 (let (($x57 (exc_halt_s 0)))
 (let (($x58 (= $x57 $x56)))
 (let (($x6174 (forall ((n (_ BitVec 6)) )(let ((?x147 (stack_t x_0 w_1 x_SIGNEXTEND_0 x_CALLDATALOAD_0 0 n)))
 (let ((?x10159 (stack_s x_0 w_1 x_SIGNEXTEND_0 x_CALLDATALOAD_0 0 n)))
 (let (($x4433 (= ?x10159 ?x147)))
 (let ((?x63 (sc_t 0)))
 (let (($x4379 (bvsle ?x63 n)))
 (or $x4379 $x4433)))))))
 ))
 (let ((?x63 (sc_t 0)))
 (let ((?x72 (sc_s 0)))
 (let (($x73 (= ?x72 ?x63)))
 (let (($x7269 (= $x10336 (or (exc_halt_t 2) (not (bvsle (_ bv0 6) (bvadd (_ bv62 6) (sc_t 2))))))))
 (let (($x9139 (forall ((w (_ BitVec 256)) )(let ((?x3473 (storage_t x_0 w_1 x_SIGNEXTEND_0 x_CALLDATALOAD_0 2 w)))
 (let ((?x1819 (storage_t x_0 w_1 x_SIGNEXTEND_0 x_CALLDATALOAD_0 3 w)))
 (= ?x1819 ?x3473))))
 ))
 (let (($x2339 (forall ((n (_ BitVec 6)) )(let ((?x8885 (stack_t x_0 w_1 x_SIGNEXTEND_0 x_CALLDATALOAD_0 2 n)))
 (let ((?x3409 (stack_t x_0 w_1 x_SIGNEXTEND_0 x_CALLDATALOAD_0 3 n)))
 (let ((?x4056 (sc_t 2)))
 (let ((?x4116 (bvadd (_ bv62 6) ?x4056)))
 (let (($x9513 (bvsle ?x4116 n)))
 (or $x9513 (= ?x3409 ?x8885))))))))
 ))
 (let ((?x4056 (sc_t 2)))
 (let ((?x1464 (bvadd (_ bv63 6) ?x4056)))
 (let (($x8818 (= ?x2012 ?x1464)))
 (let (($x9696 (= (used_gas_t x_0 w_1 x_SIGNEXTEND_0 x_CALLDATALOAD_0 3) (+ 5 (used_gas_t x_0 w_1 x_SIGNEXTEND_0 x_CALLDATALOAD_0 2)))))
 (let ((?x9175 (f_SIGNEXTEND x_0 w_1 x_SIGNEXTEND_0 x_CALLDATALOAD_0 (stack_t x_0 w_1 x_SIGNEXTEND_0 x_CALLDATALOAD_0 2 ?x1464) (stack_t x_0 w_1 x_SIGNEXTEND_0 x_CALLDATALOAD_0 2 (bvadd (_ bv62 6) ?x4056)))))
 (let (($x5522 (not (= ((_ extract 6 6) (bvadd (_ bv1 7) (concat (_ bv0 1) (sc_t 1)))) (_ bv0 1)))))
 (let (($x1920 (exc_halt_t 1)))
 (let (($x903 (exc_halt_t 2)))
 (let (($x1427 (= $x903 (or $x1920 $x5522))))
 (let (($x7449 (forall ((w (_ BitVec 256)) )(let ((?x5518 (storage_t x_0 w_1 x_SIGNEXTEND_0 x_CALLDATALOAD_0 1 w)))
 (let ((?x3473 (storage_t x_0 w_1 x_SIGNEXTEND_0 x_CALLDATALOAD_0 2 w)))
 (= ?x3473 ?x5518))))
 ))
 (let (($x3082 (forall ((n (_ BitVec 6)) )(let ((?x5486 (stack_t x_0 w_1 x_SIGNEXTEND_0 x_CALLDATALOAD_0 1 n)))
 (let ((?x8885 (stack_t x_0 w_1 x_SIGNEXTEND_0 x_CALLDATALOAD_0 2 n)))
 (let ((?x4023 (sc_t 1)))
 (let (($x2031 (bvsle ?x4023 n)))
 (or $x2031 (= ?x8885 ?x5486)))))))
 ))
 (let (($x5543 (= ?x4056 (bvadd (_ bv1 6) (sc_t 1)))))
 (let ((?x9482 (used_gas_t x_0 w_1 x_SIGNEXTEND_0 x_CALLDATALOAD_0 2)))
 (let (($x318 (= $x1920 (or $x56 (not (bvsle (_ bv0 6) (bvadd (_ bv63 6) ?x63)))))))
 (let (($x6164 (forall ((w (_ BitVec 256)) )(let ((?x10036 (storage_t x_0 w_1 x_SIGNEXTEND_0 x_CALLDATALOAD_0 0 w)))
 (let ((?x5518 (storage_t x_0 w_1 x_SIGNEXTEND_0 x_CALLDATALOAD_0 1 w)))
 (= ?x5518 ?x10036))))
 ))
 (let (($x6256 (forall ((n (_ BitVec 6)) )(let ((?x147 (stack_t x_0 w_1 x_SIGNEXTEND_0 x_CALLDATALOAD_0 0 n)))
 (let ((?x5486 (stack_t x_0 w_1 x_SIGNEXTEND_0 x_CALLDATALOAD_0 1 n)))
 (let ((?x63 (sc_t 0)))
 (let ((?x3567 (bvadd (_ bv63 6) ?x63)))
 (let (($x6909 (bvsle ?x3567 n)))
 (or $x6909 (= ?x5486 ?x147))))))))
 ))
 (let ((?x4023 (sc_t 1)))
 (let (($x5384 (= ?x4023 ?x63)))
 (let ((?x9705 (f_CALLDATALOAD x_0 w_1 x_SIGNEXTEND_0 x_CALLDATALOAD_0 (stack_t x_0 w_1 x_SIGNEXTEND_0 x_CALLDATALOAD_0 0 (bvadd (_ bv63 6) ?x63)))))
 (let (($x1976 (= $x772 (or (exc_halt_s 5) (not (bvsle (_ bv0 6) (bvadd (_ bv63 6) (sc_s 5))))))))
 (let (($x6296 (forall ((w (_ BitVec 256)) )(let ((?x9414 (storage_s x_0 w_1 x_SIGNEXTEND_0 x_CALLDATALOAD_0 5 w)))
 (let ((?x7403 (storage_s x_0 w_1 x_SIGNEXTEND_0 x_CALLDATALOAD_0 6 w)))
 (= ?x7403 ?x9414))))
 ))
 (let (($x7961 (forall ((n (_ BitVec 6)) )(let ((?x10559 (stack_s x_0 w_1 x_SIGNEXTEND_0 x_CALLDATALOAD_0 5 n)))
 (let ((?x10279 (stack_s x_0 w_1 x_SIGNEXTEND_0 x_CALLDATALOAD_0 6 n)))
 (let ((?x805 (sc_s 5)))
 (let ((?x8276 (bvadd (_ bv63 6) ?x805)))
 (let (($x7252 (bvsle ?x8276 n)))
 (or $x7252 (= ?x10279 ?x10559))))))))
 ))
 (let ((?x805 (sc_s 5)))
 (let ((?x8276 (bvadd (_ bv63 6) ?x805)))
 (let (($x2305 (= ?x926 ?x8276)))
 (let (($x9636 (= (used_gas_s x_0 w_1 x_SIGNEXTEND_0 x_CALLDATALOAD_0 6) (+ 2 (used_gas_s x_0 w_1 x_SIGNEXTEND_0 x_CALLDATALOAD_0 5)))))
 (let (($x3979 (exc_halt_s 5)))
 (let (($x2352 (= $x3979 (or (exc_halt_s 4) (not (bvsle (_ bv0 6) (bvadd (_ bv62 6) (sc_s 4))))))))
 (let (($x6387 (forall ((w (_ BitVec 256)) )(let ((?x4294 (storage_s x_0 w_1 x_SIGNEXTEND_0 x_CALLDATALOAD_0 4 w)))
 (let ((?x9414 (storage_s x_0 w_1 x_SIGNEXTEND_0 x_CALLDATALOAD_0 5 w)))
 (= ?x9414 ?x4294))))
 ))
 (let (($x9693 (forall ((n (_ BitVec 6)) )(let ((?x4305 (sc_s 4)))
 (let ((?x5889 (bvadd (_ bv62 6) ?x4305)))
 (let (($x5669 (bvsle ?x5889 n)))
 (let ((?x2903 (stack_s x_0 w_1 x_SIGNEXTEND_0 x_CALLDATALOAD_0 4 n)))
 (let ((?x10559 (stack_s x_0 w_1 x_SIGNEXTEND_0 x_CALLDATALOAD_0 5 n)))
 (or (= ?x10559 ?x2903) $x5669)))))))
 ))
 (let ((?x4305 (sc_s 4)))
 (let (($x2270 (= ?x805 ?x4305)))
 (let ((?x5957 (used_gas_s x_0 w_1 x_SIGNEXTEND_0 x_CALLDATALOAD_0 5)))
 (let ((?x1909 (bvadd (_ bv63 6) ?x4305)))
 (let ((?x9123 (stack_s x_0 w_1 x_SIGNEXTEND_0 x_CALLDATALOAD_0 4 ?x1909)))
 (let (($x10466 (= (stack_s x_0 w_1 x_SIGNEXTEND_0 x_CALLDATALOAD_0 5 ?x8276) (stack_s x_0 w_1 x_SIGNEXTEND_0 x_CALLDATALOAD_0 4 (bvadd (_ bv62 6) ?x4305)))))
 (let (($x64 (exc_halt_s 4)))
 (let (($x5849 (= $x64 (or (exc_halt_s 3) (not (bvsle (_ bv0 6) (bvadd (_ bv62 6) (sc_s 3))))))))
 (let (($x2768 (forall ((w (_ BitVec 256)) )(let ((?x1620 (storage_s x_0 w_1 x_SIGNEXTEND_0 x_CALLDATALOAD_0 3 w)))
 (let ((?x4294 (storage_s x_0 w_1 x_SIGNEXTEND_0 x_CALLDATALOAD_0 4 w)))
 (= ?x4294 ?x1620))))
 ))
 (let (($x5648 (forall ((n (_ BitVec 6)) )(let ((?x1311 (stack_s x_0 w_1 x_SIGNEXTEND_0 x_CALLDATALOAD_0 3 n)))
 (let ((?x2903 (stack_s x_0 w_1 x_SIGNEXTEND_0 x_CALLDATALOAD_0 4 n)))
 (let ((?x275 (sc_s 3)))
 (let ((?x10534 (bvadd (_ bv62 6) ?x275)))
 (let (($x6997 (bvsle ?x10534 n)))
 (or $x6997 (= ?x2903 ?x1311))))))))
 ))
 (let ((?x275 (sc_s 3)))
 (let ((?x300 (bvadd (_ bv63 6) ?x275)))
 (let (($x4777 (= ?x4305 ?x300)))
 (let ((?x6188 (used_gas_s x_0 w_1 x_SIGNEXTEND_0 x_CALLDATALOAD_0 4)))
 (let ((?x5484 (f_SIGNEXTEND x_0 w_1 x_SIGNEXTEND_0 x_CALLDATALOAD_0 (stack_s x_0 w_1 x_SIGNEXTEND_0 x_CALLDATALOAD_0 3 ?x300) (stack_s x_0 w_1 x_SIGNEXTEND_0 x_CALLDATALOAD_0 3 (bvadd (_ bv62 6) ?x275)))))
 (let (($x1387 (not (= ((_ extract 6 6) (bvadd (_ bv1 7) (concat (_ bv0 1) (sc_s 2)))) (_ bv0 1)))))
 (let (($x247 (exc_halt_s 2)))
 (let (($x292 (exc_halt_s 3)))
 (let (($x548 (= $x292 (or $x247 $x1387))))
 (let (($x10308 (forall ((w (_ BitVec 256)) )(let ((?x9661 (storage_s x_0 w_1 x_SIGNEXTEND_0 x_CALLDATALOAD_0 2 w)))
 (let ((?x1620 (storage_s x_0 w_1 x_SIGNEXTEND_0 x_CALLDATALOAD_0 3 w)))
 (= ?x1620 ?x9661))))
 ))
 (let (($x7902 (forall ((n (_ BitVec 6)) )(let ((?x10442 (stack_s x_0 w_1 x_SIGNEXTEND_0 x_CALLDATALOAD_0 2 n)))
 (let ((?x1311 (stack_s x_0 w_1 x_SIGNEXTEND_0 x_CALLDATALOAD_0 3 n)))
 (let ((?x218 (sc_s 2)))
 (let (($x2082 (bvsle ?x218 n)))
 (or $x2082 (= ?x1311 ?x10442)))))))
 ))
 (let (($x2890 (= ?x275 (bvadd (_ bv1 6) (sc_s 2)))))
 (let ((?x5494 (used_gas_s x_0 w_1 x_SIGNEXTEND_0 x_CALLDATALOAD_0 3)))
 (let (($x4877 (= $x247 (or (exc_halt_s 1) (not (bvsle (_ bv0 6) (bvadd (_ bv63 6) (sc_s 1))))))))
 (let (($x7104 (forall ((w (_ BitVec 256)) )(let ((?x9673 (storage_s x_0 w_1 x_SIGNEXTEND_0 x_CALLDATALOAD_0 1 w)))
 (let ((?x9661 (storage_s x_0 w_1 x_SIGNEXTEND_0 x_CALLDATALOAD_0 2 w)))
 (= ?x9661 ?x9673))))
 ))
 (let (($x9247 (forall ((n (_ BitVec 6)) )(let ((?x154 (sc_s 1)))
 (let ((?x2733 (bvadd (_ bv63 6) ?x154)))
 (let (($x9668 (bvsle ?x2733 n)))
 (let ((?x3357 (stack_s x_0 w_1 x_SIGNEXTEND_0 x_CALLDATALOAD_0 1 n)))
 (let ((?x10442 (stack_s x_0 w_1 x_SIGNEXTEND_0 x_CALLDATALOAD_0 2 n)))
 (or (= ?x10442 ?x3357) $x9668)))))))
 ))
 (let ((?x154 (sc_s 1)))
 (let ((?x218 (sc_s 2)))
 (let (($x8328 (= ?x218 ?x154)))
 (let ((?x9178 (used_gas_s x_0 w_1 x_SIGNEXTEND_0 x_CALLDATALOAD_0 2)))
 (let ((?x2733 (bvadd (_ bv63 6) ?x154)))
 (let ((?x5281 (stack_s x_0 w_1 x_SIGNEXTEND_0 x_CALLDATALOAD_0 1 ?x2733)))
 (let (($x9810 (= (stack_s x_0 w_1 x_SIGNEXTEND_0 x_CALLDATALOAD_0 2 (bvadd (_ bv63 6) ?x218)) (f_CALLDATALOAD x_0 w_1 x_SIGNEXTEND_0 x_CALLDATALOAD_0 ?x5281))))
 (let (($x3075 (not (bvsle (_ bv0 6) (bvadd (_ bv63 6) ?x72)))))
 (let (($x2645 (not (= ((_ extract 6 6) (bvadd (_ bv1 7) (concat (_ bv0 1) ?x72))) (_ bv0 1)))))
 (let (($x189 (exc_halt_s 1)))
 (let (($x3895 (= $x189 (or $x57 $x2645 $x3075))))
 (let (($x6918 (forall ((w (_ BitVec 256)) )(let ((?x9534 (storage_s x_0 w_1 x_SIGNEXTEND_0 x_CALLDATALOAD_0 0 w)))
 (let ((?x9673 (storage_s x_0 w_1 x_SIGNEXTEND_0 x_CALLDATALOAD_0 1 w)))
 (= ?x9673 ?x9534))))
 ))
 (let (($x705 (forall ((n (_ BitVec 6)) )(let ((?x10159 (stack_s x_0 w_1 x_SIGNEXTEND_0 x_CALLDATALOAD_0 0 n)))
 (let ((?x3357 (stack_s x_0 w_1 x_SIGNEXTEND_0 x_CALLDATALOAD_0 1 n)))
 (let ((?x72 (sc_s 0)))
 (let ((?x10965 (bvadd (_ bv63 6) ?x72)))
 (let (($x2446 (bvsle ?x10965 n)))
 (or $x2446 (= ?x3357 ?x10159))))))))
 ))
 (let (($x7187 (= ?x154 (bvadd (_ bv1 6) ?x72))))
 (let ((?x10965 (bvadd (_ bv63 6) ?x72)))
 (let ((?x7154 (stack_s x_0 w_1 x_SIGNEXTEND_0 x_CALLDATALOAD_0 0 ?x10965)))
 (let (($x2700 (forall ((w0 (_ BitVec 256)) )(let (($x5390 (= (stack_s x_0 w_1 x_SIGNEXTEND_0 x_CALLDATALOAD_0 1 (bvadd (_ bv63 6) (sc_s 1))) w0)))
 (let ((?x2204 (f_CALLDATALOAD x_0 w_1 x_SIGNEXTEND_0 x_CALLDATALOAD_0 w0)))
 (= ?x2204 (ite $x5390 x_CALLDATALOAD_0 (_ bv0 256))))))
 ))
 (let (($x2661 (forall ((w0 (_ BitVec 256)) (w1 (_ BitVec 256)) )(let (($x2214 (= (stack_s x_0 w_1 x_SIGNEXTEND_0 x_CALLDATALOAD_0 3 (bvadd (_ bv62 6) (sc_s 3))) w1)))
 (let (($x2429 (= (stack_s x_0 w_1 x_SIGNEXTEND_0 x_CALLDATALOAD_0 3 (bvadd (_ bv63 6) (sc_s 3))) w0)))
 (let ((?x10492 (f_SIGNEXTEND x_0 w_1 x_SIGNEXTEND_0 x_CALLDATALOAD_0 w0 w1)))
 (= ?x10492 (ite (and $x2429 $x2214) x_SIGNEXTEND_0 (_ bv0 256)))))))
 ))
 (let (($x9611 (forall ((w (_ BitVec 256)) )(let ((?x9534 (storage_s x_0 w_1 x_SIGNEXTEND_0 x_CALLDATALOAD_0 0 w)))
 (= ?x9534 (_ bv0 256))))
 ))
 (let (($x5628 (= ?x914 0)))
 (let (($x6677 (not $x57)))
 (let (($x624 (= (stack_s x_0 w_1 x_SIGNEXTEND_0 x_CALLDATALOAD_0 0 (_ bv0 6)) x_0)))
 (let (($x8685 (= ?x72 (_ bv1 6))))
 (and $x8685 $x624 $x6677 $x5628 $x9611 $x2661 $x2700 (= ?x5281 ?x7154) (= (stack_s x_0 w_1 x_SIGNEXTEND_0 x_CALLDATALOAD_0 1 ?x10965) ?x7154) (= (used_gas_s x_0 w_1 x_SIGNEXTEND_0 x_CALLDATALOAD_0 1) (+ 3 ?x914)) $x7187 $x705 $x6918 $x3895 $x9810 (= ?x9178 (+ 3 (used_gas_s x_0 w_1 x_SIGNEXTEND_0 x_CALLDATALOAD_0 1))) $x8328 $x9247 $x7104 $x4877 (= (stack_s x_0 w_1 x_SIGNEXTEND_0 x_CALLDATALOAD_0 3 ?x218) w_1) (= ?x5494 (+ 3 ?x9178)) $x2890 $x7902 $x10308 $x548 (= ?x9123 ?x5484) (= ?x6188 (+ 5 ?x5494)) $x4777 $x5648 $x2768 $x5849 $x10466 (= (stack_s x_0 w_1 x_SIGNEXTEND_0 x_CALLDATALOAD_0 5 (bvadd (_ bv62 6) ?x805)) ?x9123) (= ?x5957 (+ 3 ?x6188)) $x2270 $x9693 $x6387 $x2352 $x9636 $x2305 $x7961 $x6296 $x1976 (= (stack_t x_0 w_1 x_SIGNEXTEND_0 x_CALLDATALOAD_0 1 (bvadd (_ bv63 6) ?x4023)) ?x9705) (= (used_gas_t x_0 w_1 x_SIGNEXTEND_0 x_CALLDATALOAD_0 1) (+ 3 ?x9619)) $x5384 $x6256 $x6164 $x318 (= (stack_t x_0 w_1 x_SIGNEXTEND_0 x_CALLDATALOAD_0 2 ?x4023) w_1) (= ?x9482 (+ 3 (used_gas_t x_0 w_1 x_SIGNEXTEND_0 x_CALLDATALOAD_0 1))) $x5543 $x3082 $x7449 $x1427 (= (stack_t x_0 w_1 x_SIGNEXTEND_0 x_CALLDATALOAD_0 3 (bvadd (_ bv63 6) ?x2012)) ?x9175) $x9696 $x8818 $x2339 $x9139 $x7269 $x73 $x6174 $x58 $x658 $x6641 (not (and $x7824 $x8029 $x2647 $x5887)))))))))))))))))))))))))))))))))))))))))))))))))))))))))))))))))))))))))))))))))))))))))))))))))))))))))
 )
(check-sat)
(get-proof)
